num_offers = 40;
num_halls = 10;
start=[35,9,55,23,15,56,4,91,90,60,20,20,72,34,26,60,43,39,87,31,31,25,14,1,27,35,12,28,22,40,21,21,72,61,71,19,21,15,31,27];
end=[47,73,82,89,54,78,23,100,93,71,60,30,97,49,77,82,64,42,95,83,41,90,60,79,42,54,29,46,50,87,26,24,88,64,85,34,98,88,49,41];
price=[401,5475,2797,3531,400,1815,688,475,100,1106,2929,460,1895,1502,688,485,1104,65,829,554,409,3265,2227,3301,1050,819,1009,1412,332,2292,187,58,806,184,1035,872,2338,5536,1387,457];
requirement=[494,674,469,461,212,883,648,461,969,717,718,505,229,919,944,361,800,298,658,883,336,312,250,347,868,858,289,616,474,566,643,710,460,832,668,355,391,238,610,546];
capacity=[382,389,756,621,721,776,288,981,524,866];
